34 34
21
3 3 9 10
3 4 9 6
3 5 0 7
3 6 9 0
3 7 0 0
3 8 0 12
3 9 6 0
3 10 9 24
3 11 9 13
3 12 31 0
3 13 28 21
3 14 0 20
3 21 28 0
3 22 31 12
3 25 6 9
3 34 3 0
4 4 12 5
4 5 12 0
4 11 12 9
4 14 12 20
12 34 16 0
